20181231 38500.00 33000.00
20180110 38500.00 31000.00
20170904 38476.57 30692.47
20161231 38476.57 24975.79
20161202 38476.57 24975.79
20160902 38476.57 24947.67
20160630 32476.57 24947.67
20151231 32476.57 24936.12
20151202 32476.57 24936.12
